[VALIDATOR STDOUT]
Type-checking move
...action passes type checking.
Type-checking pick
...action passes type checking.
Type-checking drop
...action passes type checking.
Checking plan: /home/jfan5/Safety-gen/runs/benchmark/optic/grippers_20260215_225302/grippers/optic_results/grippers-n1-r11-o9-s9001.plan
Plan to validate:

Plan size: 32
1:
(pick robot1 ball3 room9 lgripper1)
 
2:
(move robot1 room9 room3)
 
3:
(drop robot1 ball3 room3 lgripper1)
 
4:
(pick robot1 ball8 room3 rgripper1)
 
5:
(move robot1 room3 room8)
 
6:
(move robot1 room8 room4)
 
7:
(drop robot1 ball8 room4 rgripper1)
 
8:
(move robot1 room4 room7)
 
9:
(pick robot1 ball9 room7 lgripper1)
 
10:
(pick robot1 ball2 room7 rgripper1)
 
11:
(move robot1 room7 room8)
 
12:
(drop robot1 ball9 room8 lgripper1)
 
13:
(move robot1 room8 room9)
 
14:
(drop robot1 ball2 room9 rgripper1)
 
15:
(move robot1 room9 room6)
 
16:
(pick robot1 ball7 room6 lgripper1)
 
17:
(pick robot1 ball6 room6 rgripper1)
 
18:
(move robot1 room6 room8)
 
19:
(move robot1 room8 room4)
 
20:
(drop robot1 ball7 room4 lgripper1)
 
21:
(move robot1 room4 room8)
 
22:
(move robot1 room8 room9)
 
23:
(drop robot1 ball6 room9 rgripper1)
 
24:
(move robot1 room9 room8)
 
25:
(move robot1 room8 room2)
 
26:
(pick robot1 ball4 room2 lgripper1)
 
27:
(move robot1 room2 room8)
 
28:
(move robot1 room8 room1)
 
29:
(drop robot1 ball4 room1 lgripper1)
 
30:
(pick robot1 ball1 room1 rgripper1)
 
31:
(move robot1 room1 room8)
 
32:
(drop robot1 ball1 room8 rgripper1)
 

Plan Validation details
-----------------------

Checking next happening (time 1)
Deleting (at ball3 room9)
Deleting (free robot1 lgripper1)
Adding (carry robot1 ball3 lgripper1)

Checking next happening (time 2)
Deleting (at-robby robot1 room9)
Adding (at-robby robot1 room3)

Checking next happening (time 3)
Deleting (carry robot1 ball3 lgripper1)
Adding (at ball3 room3)
Adding (free robot1 lgripper1)

Checking next happening (time 4)
Deleting (at ball8 room3)
Deleting (free robot1 rgripper1)
Adding (carry robot1 ball8 rgripper1)

Checking next happening (time 5)
Deleting (at-robby robot1 room3)
Adding (at-robby robot1 room8)

Checking next happening (time 6)
Deleting (at-robby robot1 room8)
Adding (at-robby robot1 room4)

Checking next happening (time 7)
Deleting (carry robot1 ball8 rgripper1)
Adding (at ball8 room4)
Adding (free robot1 rgripper1)

Checking next happening (time 8)
Deleting (at-robby robot1 room4)
Adding (at-robby robot1 room7)

Checking next happening (time 9)
Deleting (at ball9 room7)
Deleting (free robot1 lgripper1)
Adding (carry robot1 ball9 lgripper1)

Checking next happening (time 10)
Deleting (at ball2 room7)
Deleting (free robot1 rgripper1)
Adding (carry robot1 ball2 rgripper1)

Checking next happening (time 11)
Deleting (at-robby robot1 room7)
Adding (at-robby robot1 room8)

Checking next happening (time 12)
Deleting (carry robot1 ball9 lgripper1)
Adding (at ball9 room8)
Adding (free robot1 lgripper1)

Checking next happening (time 13)
Deleting (at-robby robot1 room8)
Adding (at-robby robot1 room9)

Checking next happening (time 14)
Deleting (carry robot1 ball2 rgripper1)
Adding (at ball2 room9)
Adding (free robot1 rgripper1)

Checking next happening (time 15)
Deleting (at-robby robot1 room9)
Adding (at-robby robot1 room6)

Checking next happening (time 16)
Deleting (at ball7 room6)
Deleting (free robot1 lgripper1)
Adding (carry robot1 ball7 lgripper1)

Checking next happening (time 17)
Deleting (at ball6 room6)
Deleting (free robot1 rgripper1)
Adding (carry robot1 ball6 rgripper1)

Checking next happening (time 18)
Deleting (at-robby robot1 room6)
Adding (at-robby robot1 room8)

Checking next happening (time 19)
Deleting (at-robby robot1 room8)
Adding (at-robby robot1 room4)

Checking next happening (time 20)
Deleting (carry robot1 ball7 lgripper1)
Adding (at ball7 room4)
Adding (free robot1 lgripper1)

Checking next happening (time 21)
Deleting (at-robby robot1 room4)
Adding (at-robby robot1 room8)

Checking next happening (time 22)
Deleting (at-robby robot1 room8)
Adding (at-robby robot1 room9)

Checking next happening (time 23)
Deleting (carry robot1 ball6 rgripper1)
Adding (at ball6 room9)
Adding (free robot1 rgripper1)

Checking next happening (time 24)
Deleting (at-robby robot1 room9)
Adding (at-robby robot1 room8)

Checking next happening (time 25)
Deleting (at-robby robot1 room8)
Adding (at-robby robot1 room2)

Checking next happening (time 26)
Deleting (at ball4 room2)
Deleting (free robot1 lgripper1)
Adding (carry robot1 ball4 lgripper1)

Checking next happening (time 27)
Deleting (at-robby robot1 room2)
Adding (at-robby robot1 room8)

Checking next happening (time 28)
Deleting (at-robby robot1 room8)
Adding (at-robby robot1 room1)

Checking next happening (time 29)
Deleting (carry robot1 ball4 lgripper1)
Adding (at ball4 room1)
Adding (free robot1 lgripper1)

Checking next happening (time 30)
Deleting (at ball1 room1)
Deleting (free robot1 rgripper1)
Adding (carry robot1 ball1 rgripper1)

Checking next happening (time 31)
Deleting (at-robby robot1 room1)
Adding (at-robby robot1 room8)

Checking next happening (time 32)
Deleting (carry robot1 ball1 rgripper1)
Adding (at ball1 room8)
Adding (free robot1 rgripper1)
Plan executed successfully - checking goal
Plan valid
Final value: 32 

Successful plans:
Value: 32
 /home/jfan5/Safety-gen/runs/benchmark/optic/grippers_20260215_225302/grippers/optic_results/grippers-n1-r11-o9-s9001.plan 32
